10
1 0 4
2 1 5
3 0 5
3 1 7
3 2 1
4 0 1
4 1 7
4 2 4
4 3 2
5 0 10
5 1 1
5 2 5
5 3 6
5 4 2
6 0 7
6 1 10
6 2 8
6 4 7
6 5 4
7 0 1
7 1 8
7 2 4
7 5 7
7 6 5
8 0 2
8 2 1
8 3 4
8 4 7
8 5 2
8 6 5
8 7 9
9 0 5
9 1 7
9 2 4
9 3 7
9 5 6
9 6 6
9 8 8
